benchmark/results/graph__10-1000-0.10-02_6/graph__10-1000-0.10-02_6_QuintonOs_Benders_aux.lp
\ This file has been generated by DOcplex
\ ENCODING=ISO-8859-1
\Problem name: Quinton Bounded Benders_auxiliary_sub

Minimize
 obj: 0.000817661488 pi_nr_a0 + 0.001482279358 pi_nr_a1
      + 0.001228501229 pi_nr_a2 + 0.001078982650 pi_nr_a3
      + 0.001592356688 pi_nr_a4 + 0.000948766603 pi_nr_a5
      + 0.001602272068 pi_nr_a6 + 0.001238671712 pi_nr_a7
      + 0.001210848167 pi_nr_a8 + 0.000838926174 pi_nr_a9 + pi_p_a2_a1
      + pi_p_a7_a8 + pi_p_a6_a6 + pi_p_a2_a5 + pi_p_a3_a4
      + 1114.034600768966 pi_d_a0_a1_proc_0
      + 1093.784002327993 pi_d_a1_a0_proc_0 + 636.499995257705 pi_d_a0_a3_proc_0
      + 625.499995347112 pi_d_a3_a0_proc_0 + 0.500022894960 pi_d_a0_a5_proc_0
      + 0.499977105040 pi_d_a5_a0_proc_0 + 783.135326415705 pi_d_a0_a6_proc_0
      + 764.486053423512 pi_d_a6_a0_proc_0 + 19.063688345772 pi_d_a0_a7_proc_0
      + 1.947232216078 pi_d_a7_a0_proc_0 + 645.587327738015 pi_d_a0_a8_proc_0
      + 626.264772594158 pi_d_a8_a0_proc_0 + 159.090372029172 pi_d_a1_a2_proc_1
      + 157.091024873869 pi_d_a2_a1_proc_1 + 795.590376771466 pi_d_a1_a3_proc_1
      + 1741.408970473243 pi_d_a1_a3_proc_0 + 781.591029526757 pi_d_a3_a1_proc_1
      + 1727.409623228534 pi_d_a3_a1_proc_0 + 159.965399231034 pi_d_a1_a4_proc_1
      + 156.215997672007 pi_d_a4_a1_proc_1 + 1105.284627970828 pi_d_a1_a5_proc_0
      + 1102.533975126131 pi_d_a5_a1_proc_0 + 640.553422933599 pi_d_a1_a6_proc_1
      + 1871.993405869775 pi_d_a1_a6_proc_0 + 651.006594130225 pi_d_a6_a1_proc_1
      + 1882.446577066401 pi_d_a6_a1_proc_0
      + 1400.013840947063 pi_d_a1_a7_proc_1
      + 1104.843364605872 pi_d_a1_a7_proc_0
      + 1418.156635394128 pi_d_a7_a1_proc_1
      + 1122.986159052937 pi_d_a7_a1_proc_0 + 785.822133102636 pi_d_a1_a8_proc_1
      + 1741.492836531768 pi_d_a1_a8_proc_0 + 781.507163468231 pi_d_a8_a1_proc_1
      + 1737.177866897364 pi_d_a8_a1_proc_0 + 166.731703421446 pi_d_a1_a9_proc_1
      + 149.449693481595 pi_d_a9_a1_proc_1 + 637.000004738569 pi_d_a2_a3_proc_1
      + 625.000004656613 pi_d_a3_a2_proc_1 + 1.351562612226 pi_d_a2_a4_proc_1
      - 0.351562612226 pi_d_a4_a2_proc_1 + 494.463649114577 pi_d_a2_a6_proc_1
      + 481.914971046206 pi_d_a6_a2_proc_1 + 1262.878232486546 pi_d_a2_a7_proc_1
      + 1240.110846951604 pi_d_a7_a2_proc_1 + 626.163796812636 pi_d_a2_a8_proc_1
      + 625.984102855191 pi_d_a8_a2_proc_1 + 10.161280610187 pi_d_a2_a9_proc_1
      - 9.161280610187 pi_d_a9_a2_proc_1 + 637.000004738569 pi_d_a3_a4_proc_1
      + 625.000004656613 pi_d_a4_a3_proc_1 + 625.592656310648 pi_d_a3_a5_proc_0
      + 636.407334294170 pi_d_a5_a3_proc_0 + 1118.373798012830 pi_d_a3_a6_proc_1
      + 1403.995168456865 pi_d_a3_a6_proc_0
      + 1119.004831543135 pi_d_a6_a3_proc_1
      + 1404.626201987170 pi_d_a6_a3_proc_0
      + 1892.923135727644 pi_d_a3_a7_proc_1 + 651.934046894312 pi_d_a3_a7_proc_0
      + 1871.065953105688 pi_d_a7_a3_proc_1 + 630.076864272356 pi_d_a7_a3_proc_0
      + 1256.573946737092 pi_d_a3_a8_proc_1
      + 1266.426037674083 pi_d_a3_a8_proc_0
      + 1256.573962325917 pi_d_a8_a3_proc_1
      + 1266.426053262908 pi_d_a8_a3_proc_0 + 640.661285341305 pi_d_a3_a9_proc_1
      + 621.338724053877 pi_d_a9_a3_proc_1 + 484.955201040904 pi_d_a4_a6_proc_1
      + 491.423419119879 pi_d_a6_a4_proc_1 + 1245.488339334726 pi_d_a4_a7_proc_1
      + 1257.500740103424 pi_d_a7_a4_proc_1 + 625.659890349380 pi_d_a4_a8_proc_1
      + 626.488009318447 pi_d_a8_a4_proc_1 + 9.161280610187 pi_d_a4_a9_proc_1
      - 8.161280610187 pi_d_a9_a4_proc_1 + 783.178136922824 pi_d_a5_a6_proc_0
      + 764.443242916393 pi_d_a6_a5_proc_0 + 19.548307486864 pi_d_a5_a7_proc_0
      + 1.462613074987 pi_d_a7_a5_proc_0 + 645.989676415259 pi_d_a5_a8_proc_0
      + 625.862423916914 pi_d_a8_a5_proc_0 + 1746.514891149278 pi_d_a6_a7_proc_1
      + 791.147191550345 pi_d_a6_a7_proc_0 + 1731.852808449655 pi_d_a7_a6_proc_1
      + 776.485108850722 pi_d_a7_a6_proc_0 + 1118.332870940366 pi_d_a6_a8_proc_1
      + 1413.806351111755 pi_d_a6_a8_proc_0
      + 1109.193648888245 pi_d_a8_a6_proc_1
      + 1404.667129059634 pi_d_a8_a6_proc_0 + 497.960598191488 pi_d_a6_a9_proc_1
      + 478.418021969295 pi_d_a9_a6_proc_1 + 1883.198735963883 pi_d_a7_a8_proc_1
      + 652.061756857906 pi_d_a7_a8_proc_0 + 1870.938243142094 pi_d_a8_a7_proc_1
      + 639.801264036117 pi_d_a8_a7_proc_0 + 1262.907259732485 pi_d_a7_a9_proc_1
      + 1240.081819705665 pi_d_a9_a7_proc_1 + 631.527072274839 pi_d_a8_a9_proc_1
      + 620.620827392988 pi_d_a9_a8_proc_1 + pi_y2_a0_proc_0
      + 0.124972798138 pi_y2_a1_proc_0 + 0.875027201862 pi_y2_a1_proc_1
      + pi_y2_a2_proc_1 + 0.500000003725 pi_y2_a3_proc_0
      + 0.499999996275 pi_y2_a3_proc_1 + pi_y2_a4_proc_1 + pi_y2_a5_proc_0
      + 0.386748065092 pi_y2_a6_proc_0 + 0.613251934908 pi_y2_a6_proc_1
      + 0.992065455765 pi_y2_a7_proc_0 + 0.007934544235 pi_y2_a7_proc_1
      + 0.496093536744 pi_y2_a8_proc_0 + 0.503906463256 pi_y2_a8_proc_1
      + pi_y2_a9_proc_1
Subject To
 c1: 0.000817661488 pi_nr_a0 + 0.001572327044 pi_nr_a1 + 0.001228501229 pi_nr_a2
     + 0.001293661061 pi_nr_a3 + 0.001592356688 pi_nr_a4
     + 0.000948766603 pi_nr_a5 + 0.001980198020 pi_nr_a6
     + 0.001242236025 pi_nr_a7 + 0.001406469761 pi_nr_a8
     + 0.000838926174 pi_nr_a9 + pi_p_a2_a1 + pi_p_a7_a8 + pi_p_a6_a6
     + pi_p_a2_a5 + pi_p_a3_a4 + 1273 pi_d_a0_a1_proc_0 + 1250 pi_d_a1_a0_proc_0
     + pi_d_a3_a0_proc_0 + pi_d_a0_a5_proc_0 + 1273 pi_d_a0_a6_proc_0
     + 1250 pi_d_a6_a0_proc_0 + 11 pi_d_a0_a7_proc_0 - 10 pi_d_a7_a0_proc_0
     + 1273 pi_d_a0_a8_proc_0 + 1250 pi_d_a8_a0_proc_0 + pi_d_a2_a1_proc_1
     + 1273 pi_d_a1_a3_proc_1 + 1273 pi_d_a1_a3_proc_0 + 1250 pi_d_a3_a1_proc_1
     + 1250 pi_d_a3_a1_proc_0 + pi_d_a1_a4_proc_1 + 1273 pi_d_a1_a5_proc_0
     + 1250 pi_d_a5_a1_proc_0 + pi_d_a1_a6_proc_1 + 2523 pi_d_a1_a6_proc_0
     + 2522 pi_d_a6_a1_proc_0 + 1250 pi_d_a1_a7_proc_1 + 1250 pi_d_a1_a7_proc_0
     + 1273 pi_d_a7_a1_proc_1 + 1273 pi_d_a7_a1_proc_0 + 11 pi_d_a1_a8_proc_1
     + 2533 pi_d_a1_a8_proc_0 - 10 pi_d_a8_a1_proc_1 + 2512 pi_d_a8_a1_proc_0
     + 11 pi_d_a1_a9_proc_1 - 10 pi_d_a9_a1_proc_1 + 1273 pi_d_a2_a3_proc_1
     + 1250 pi_d_a3_a2_proc_1 + pi_d_a2_a4_proc_1 + 2 pi_d_a2_a6_proc_1
     - pi_d_a6_a2_proc_1 + 1273 pi_d_a2_a7_proc_1 + 1250 pi_d_a7_a2_proc_1
     + 12 pi_d_a2_a8_proc_1 - 11 pi_d_a8_a2_proc_1 + 12 pi_d_a2_a9_proc_1
     - 11 pi_d_a9_a2_proc_1 + 1273 pi_d_a3_a4_proc_1 + 1250 pi_d_a4_a3_proc_1
     + pi_d_a3_a5_proc_0 + 1250 pi_d_a3_a6_proc_1 + 1250 pi_d_a3_a6_proc_0
     + 1273 pi_d_a6_a3_proc_1 + 1273 pi_d_a6_a3_proc_0 + 2533 pi_d_a3_a7_proc_1
     + 11 pi_d_a3_a7_proc_0 + 2512 pi_d_a7_a3_proc_1 - 10 pi_d_a7_a3_proc_0
     + 1250 pi_d_a3_a8_proc_1 + 1250 pi_d_a3_a8_proc_0 + 1273 pi_d_a8_a3_proc_1
     + 1273 pi_d_a8_a3_proc_0 + 1273 pi_d_a3_a9_proc_1 + 1250 pi_d_a9_a3_proc_1
     + pi_d_a4_a6_proc_1 + 1250 pi_d_a4_a7_proc_1 + 1273 pi_d_a7_a4_proc_1
     + 11 pi_d_a4_a8_proc_1 - 10 pi_d_a8_a4_proc_1 + 11 pi_d_a4_a9_proc_1
     - 10 pi_d_a9_a4_proc_1 + 1273 pi_d_a5_a6_proc_0 + 1250 pi_d_a6_a5_proc_0
     + 11 pi_d_a5_a7_proc_0 - 10 pi_d_a7_a5_proc_0 + 1273 pi_d_a5_a8_proc_0
     + 1250 pi_d_a8_a5_proc_0 + 1273 pi_d_a6_a7_proc_1 + 1273 pi_d_a6_a7_proc_0
     + 1250 pi_d_a7_a6_proc_1 + 1250 pi_d_a7_a6_proc_0 + 11 pi_d_a6_a8_proc_1
     + 2533 pi_d_a6_a8_proc_0 - 10 pi_d_a8_a6_proc_1 + 2512 pi_d_a8_a6_proc_0
     + 11 pi_d_a6_a9_proc_1 - 10 pi_d_a9_a6_proc_1 + 1273 pi_d_a7_a8_proc_1
     + 1273 pi_d_a7_a8_proc_0 + 1250 pi_d_a8_a7_proc_1 + 1250 pi_d_a8_a7_proc_0
     + 1273 pi_d_a7_a9_proc_1 + 1250 pi_d_a9_a7_proc_1 + pi_d_a9_a8_proc_1
     + pi_y2_a0_proc_0 + pi_y2_a1_proc_1 + pi_y2_a2_proc_1 + pi_y2_a3_proc_0
     + pi_y2_a4_proc_1 + pi_y2_a5_proc_0 + pi_y2_a6_proc_1 + pi_y2_a7_proc_0
     + pi_y2_a8_proc_1 + pi_y2_a9_proc_1 = 0.000222915738
 c2: pi_nr_a0 + pi_nr_a1 + pi_nr_a2 + pi_nr_a3 + pi_nr_a4 + pi_nr_a5 + pi_nr_a6
     + pi_nr_a7 + pi_nr_a8 + pi_nr_a9 - pi_y1_a0 - pi_y1_a1 - pi_y1_a2
     - pi_y1_a3 - pi_y1_a4 - pi_y1_a5 - pi_y1_a6 - pi_y1_a7 - pi_y1_a8
     - pi_y1_a9 >= 1
 c3: - pi_p_a1_a0 + pi_p_a0_a3 + pi_d_a0_a1_proc_0 - pi_d_a1_a0_proc_0
     + pi_d_a0_a3_proc_0 - pi_d_a3_a0_proc_0 + pi_d_a0_a5_proc_0
     - pi_d_a5_a0_proc_0 + pi_d_a0_a6_proc_0 - pi_d_a6_a0_proc_0
     + pi_d_a0_a7_proc_0 - pi_d_a7_a0_proc_0 + pi_d_a0_a8_proc_0
     - pi_d_a8_a0_proc_0 >= 0
 c4: 1223 pi_p_a0_a3 + 1223 pi_d_a0_a1_proc_0 + 1223 pi_d_a0_a3_proc_0
     + 1223 pi_d_a0_a5_proc_0 + 1223 pi_d_a0_a6_proc_0 + 1223 pi_d_a0_a7_proc_0
     + 1223 pi_d_a0_a8_proc_0 + pi_y1_a0 + pi_y2_a0_proc_0 >= 0
 c5: pi_p_a1_a0 - pi_p_a2_a1 - pi_p_a4_a1 - pi_d_a0_a1_proc_0
     + pi_d_a1_a0_proc_0 + pi_d_a1_a2_proc_1 - pi_d_a2_a1_proc_1
     + pi_d_a1_a3_proc_1 + pi_d_a1_a3_proc_0 - pi_d_a3_a1_proc_1
     - pi_d_a3_a1_proc_0 + pi_d_a1_a4_proc_1 - pi_d_a4_a1_proc_1
     + pi_d_a1_a5_proc_0 - pi_d_a5_a1_proc_0 + pi_d_a1_a6_proc_1
     + pi_d_a1_a6_proc_0 - pi_d_a6_a1_proc_1 - pi_d_a6_a1_proc_0
     + pi_d_a1_a7_proc_1 + pi_d_a1_a7_proc_0 - pi_d_a7_a1_proc_1
     - pi_d_a7_a1_proc_0 + pi_d_a1_a8_proc_1 + pi_d_a1_a8_proc_0
     - pi_d_a8_a1_proc_1 - pi_d_a8_a1_proc_0 + pi_d_a1_a9_proc_1
     - pi_d_a9_a1_proc_1 >= 0
 c6: 1174 pi_p_a1_a0 + 1174 pi_d_a1_a0_proc_0 + 1174 pi_d_a1_a3_proc_0
     + 1174 pi_d_a1_a5_proc_0 + 1174 pi_d_a1_a6_proc_0 + 1174 pi_d_a1_a7_proc_0
     + 1174 pi_d_a1_a8_proc_0 + pi_y1_a1 + pi_y2_a1_proc_0 >= 0
 c7: 636 pi_p_a1_a0 + 636 pi_d_a1_a2_proc_1 + 636 pi_d_a1_a3_proc_1
     + 636 pi_d_a1_a4_proc_1 + 636 pi_d_a1_a6_proc_1 + 636 pi_d_a1_a7_proc_1
     + 636 pi_d_a1_a8_proc_1 + 636 pi_d_a1_a9_proc_1 + pi_y1_a1
     + pi_y2_a1_proc_1 >= 0
 c8: pi_p_a2_a1 - pi_p_a5_a2 - pi_p_a3_a2 + pi_p_a2_a5 - pi_d_a1_a2_proc_1
     + pi_d_a2_a1_proc_1 + pi_d_a2_a3_proc_1 - pi_d_a3_a2_proc_1
     + pi_d_a2_a4_proc_1 - pi_d_a4_a2_proc_1 + pi_d_a2_a6_proc_1
     - pi_d_a6_a2_proc_1 + pi_d_a2_a7_proc_1 - pi_d_a7_a2_proc_1
     + pi_d_a2_a8_proc_1 - pi_d_a8_a2_proc_1 + pi_d_a2_a9_proc_1
     - pi_d_a9_a2_proc_1 >= 0
 c9: 814 pi_p_a2_a1 + 814 pi_p_a2_a5 + 814 pi_d_a2_a1_proc_1
     + 814 pi_d_a2_a3_proc_1 + 814 pi_d_a2_a4_proc_1 + 814 pi_d_a2_a6_proc_1
     + 814 pi_d_a2_a7_proc_1 + 814 pi_d_a2_a8_proc_1 + 814 pi_d_a2_a9_proc_1
     + pi_y1_a2 + pi_y2_a2_proc_1 >= 0
 c10: - pi_p_a0_a3 + pi_p_a3_a2 + pi_p_a3_a4 - pi_d_a0_a3_proc_0
      + pi_d_a3_a0_proc_0 - pi_d_a1_a3_proc_1 - pi_d_a1_a3_proc_0
      + pi_d_a3_a1_proc_1 + pi_d_a3_a1_proc_0 - pi_d_a2_a3_proc_1
      + pi_d_a3_a2_proc_1 + pi_d_a3_a4_proc_1 - pi_d_a4_a3_proc_1
      + pi_d_a3_a5_proc_0 - pi_d_a5_a3_proc_0 + pi_d_a3_a6_proc_1
      + pi_d_a3_a6_proc_0 - pi_d_a6_a3_proc_1 - pi_d_a6_a3_proc_0
      + pi_d_a3_a7_proc_1 + pi_d_a3_a7_proc_0 - pi_d_a7_a3_proc_1
      - pi_d_a7_a3_proc_0 + pi_d_a3_a8_proc_1 + pi_d_a3_a8_proc_0
      - pi_d_a8_a3_proc_1 - pi_d_a8_a3_proc_0 + pi_d_a3_a9_proc_1
      - pi_d_a9_a3_proc_1 >= 0
 c11: 773 pi_p_a3_a2 + 773 pi_p_a3_a4 + 773 pi_d_a3_a0_proc_0
      + 773 pi_d_a3_a1_proc_0 + 773 pi_d_a3_a5_proc_0 + 773 pi_d_a3_a6_proc_0
      + 773 pi_d_a3_a7_proc_0 + 773 pi_d_a3_a8_proc_0 + pi_y1_a3
      + pi_y2_a3_proc_0 >= 0
 c12: 1157 pi_p_a3_a2 + 1157 pi_p_a3_a4 + 1157 pi_d_a3_a1_proc_1
      + 1157 pi_d_a3_a2_proc_1 + 1157 pi_d_a3_a4_proc_1 + 1157 pi_d_a3_a6_proc_1
      + 1157 pi_d_a3_a7_proc_1 + 1157 pi_d_a3_a8_proc_1 + 1157 pi_d_a3_a9_proc_1
      + pi_y1_a3 + pi_y2_a3_proc_1 >= 0
 c13: pi_p_a4_a1 - pi_p_a6_a4 - pi_p_a9_a4 - pi_p_a3_a4 - pi_d_a1_a4_proc_1
      + pi_d_a4_a1_proc_1 - pi_d_a2_a4_proc_1 + pi_d_a4_a2_proc_1
      - pi_d_a3_a4_proc_1 + pi_d_a4_a3_proc_1 + pi_d_a4_a6_proc_1
      - pi_d_a6_a4_proc_1 + pi_d_a4_a7_proc_1 - pi_d_a7_a4_proc_1
      + pi_d_a4_a8_proc_1 - pi_d_a8_a4_proc_1 + pi_d_a4_a9_proc_1
      - pi_d_a9_a4_proc_1 >= 0
 c14: 628 pi_p_a4_a1 + 628 pi_d_a4_a1_proc_1 + 628 pi_d_a4_a2_proc_1
      + 628 pi_d_a4_a3_proc_1 + 628 pi_d_a4_a6_proc_1 + 628 pi_d_a4_a7_proc_1
      + 628 pi_d_a4_a8_proc_1 + 628 pi_d_a4_a9_proc_1 + pi_y1_a4
      + pi_y2_a4_proc_1 >= 0
 c15: pi_p_a5_a2 - pi_p_a9_a5 - pi_p_a8_a5 - pi_p_a2_a5 - pi_d_a0_a5_proc_0
      + pi_d_a5_a0_proc_0 - pi_d_a1_a5_proc_0 + pi_d_a5_a1_proc_0
      - pi_d_a3_a5_proc_0 + pi_d_a5_a3_proc_0 + pi_d_a5_a6_proc_0
      - pi_d_a6_a5_proc_0 + pi_d_a5_a7_proc_0 - pi_d_a7_a5_proc_0
      + pi_d_a5_a8_proc_0 - pi_d_a8_a5_proc_0 >= 0
 c16: 1054 pi_p_a5_a2 + 1054 pi_d_a5_a0_proc_0 + 1054 pi_d_a5_a1_proc_0
      + 1054 pi_d_a5_a3_proc_0 + 1054 pi_d_a5_a6_proc_0 + 1054 pi_d_a5_a7_proc_0
      + 1054 pi_d_a5_a8_proc_0 + pi_y1_a5 + pi_y2_a5_proc_0 >= 0
 c17: pi_p_a6_a4 - pi_p_a7_a6 - pi_p_a8_a6 - pi_d_a0_a6_proc_0
      + pi_d_a6_a0_proc_0 - pi_d_a1_a6_proc_1 - pi_d_a1_a6_proc_0
      + pi_d_a6_a1_proc_1 + pi_d_a6_a1_proc_0 - pi_d_a2_a6_proc_1
      + pi_d_a6_a2_proc_1 - pi_d_a3_a6_proc_1 - pi_d_a3_a6_proc_0
      + pi_d_a6_a3_proc_1 + pi_d_a6_a3_proc_0 - pi_d_a4_a6_proc_1
      + pi_d_a6_a4_proc_1 - pi_d_a5_a6_proc_0 + pi_d_a6_a5_proc_0
      + pi_d_a6_a7_proc_1 + pi_d_a6_a7_proc_0 - pi_d_a7_a6_proc_1
      - pi_d_a7_a6_proc_0 + pi_d_a6_a8_proc_1 + pi_d_a6_a8_proc_0
      - pi_d_a8_a6_proc_1 - pi_d_a8_a6_proc_0 + pi_d_a6_a9_proc_1
      - pi_d_a9_a6_proc_1 >= 0
 c18: 997 pi_p_a6_a4 + 997 pi_p_a6_a6 + 997 pi_d_a6_a0_proc_0
      + 997 pi_d_a6_a1_proc_0 + 997 pi_d_a6_a3_proc_0 + 997 pi_d_a6_a5_proc_0
      + 997 pi_d_a6_a7_proc_0 + 997 pi_d_a6_a8_proc_0 + pi_y1_a6
      + pi_y2_a6_proc_0 >= 0
 c19: 505 pi_p_a6_a4 + 505 pi_p_a6_a6 + 505 pi_d_a6_a1_proc_1
      + 505 pi_d_a6_a2_proc_1 + 505 pi_d_a6_a3_proc_1 + 505 pi_d_a6_a4_proc_1
      + 505 pi_d_a6_a7_proc_1 + 505 pi_d_a6_a8_proc_1 + 505 pi_d_a6_a9_proc_1
      + pi_y1_a6 + pi_y2_a6_proc_1 >= 0
 c20: pi_p_a7_a6 + pi_p_a7_a8 - pi_p_a9_a7 - pi_d_a0_a7_proc_0
      + pi_d_a7_a0_proc_0 - pi_d_a1_a7_proc_1 - pi_d_a1_a7_proc_0
      + pi_d_a7_a1_proc_1 + pi_d_a7_a1_proc_0 - pi_d_a2_a7_proc_1
      + pi_d_a7_a2_proc_1 - pi_d_a3_a7_proc_1 - pi_d_a3_a7_proc_0
      + pi_d_a7_a3_proc_1 + pi_d_a7_a3_proc_0 - pi_d_a4_a7_proc_1
      + pi_d_a7_a4_proc_1 - pi_d_a5_a7_proc_0 + pi_d_a7_a5_proc_0
      - pi_d_a6_a7_proc_1 - pi_d_a6_a7_proc_0 + pi_d_a7_a6_proc_1
      + pi_d_a7_a6_proc_0 + pi_d_a7_a8_proc_1 + pi_d_a7_a8_proc_0
      - pi_d_a8_a7_proc_1 - pi_d_a8_a7_proc_0 + pi_d_a7_a9_proc_1
      - pi_d_a9_a7_proc_1 >= 0
 c21: 805 pi_p_a7_a6 + 805 pi_p_a7_a8 + 805 pi_d_a7_a0_proc_0
      + 805 pi_d_a7_a1_proc_0 + 805 pi_d_a7_a3_proc_0 + 805 pi_d_a7_a5_proc_0
      + 805 pi_d_a7_a6_proc_0 + 805 pi_d_a7_a8_proc_0 + pi_y1_a7
      + pi_y2_a7_proc_0 >= 0
 c22: 1261 pi_p_a7_a6 + 1261 pi_p_a7_a8 + 1261 pi_d_a7_a1_proc_1
      + 1261 pi_d_a7_a2_proc_1 + 1261 pi_d_a7_a3_proc_1 + 1261 pi_d_a7_a4_proc_1
      + 1261 pi_d_a7_a6_proc_1 + 1261 pi_d_a7_a8_proc_1 + 1261 pi_d_a7_a9_proc_1
      + pi_y1_a7 + pi_y2_a7_proc_1 >= 0
 c23: - pi_p_a7_a8 + pi_p_a8_a9 + pi_p_a8_a5 + pi_p_a8_a6 - pi_d_a0_a8_proc_0
      + pi_d_a8_a0_proc_0 - pi_d_a1_a8_proc_1 - pi_d_a1_a8_proc_0
      + pi_d_a8_a1_proc_1 + pi_d_a8_a1_proc_0 - pi_d_a2_a8_proc_1
      + pi_d_a8_a2_proc_1 - pi_d_a3_a8_proc_1 - pi_d_a3_a8_proc_0
      + pi_d_a8_a3_proc_1 + pi_d_a8_a3_proc_0 - pi_d_a4_a8_proc_1
      + pi_d_a8_a4_proc_1 - pi_d_a5_a8_proc_0 + pi_d_a8_a5_proc_0
      - pi_d_a6_a8_proc_1 - pi_d_a6_a8_proc_0 + pi_d_a8_a6_proc_1
      + pi_d_a8_a6_proc_0 - pi_d_a7_a8_proc_1 - pi_d_a7_a8_proc_0
      + pi_d_a8_a7_proc_1 + pi_d_a8_a7_proc_0 + pi_d_a8_a9_proc_1
      - pi_d_a9_a8_proc_1 >= 0
 c24: 988 pi_p_a8_a9 + 988 pi_p_a8_a5 + 988 pi_p_a8_a6 + 988 pi_d_a8_a0_proc_0
      + 988 pi_d_a8_a1_proc_0 + 988 pi_d_a8_a3_proc_0 + 988 pi_d_a8_a5_proc_0
      + 988 pi_d_a8_a6_proc_0 + 988 pi_d_a8_a7_proc_0 + pi_y1_a8
      + pi_y2_a8_proc_0 >= 0
 c25: 711 pi_p_a8_a9 + 711 pi_p_a8_a5 + 711 pi_p_a8_a6 + 711 pi_d_a8_a1_proc_1
      + 711 pi_d_a8_a2_proc_1 + 711 pi_d_a8_a3_proc_1 + 711 pi_d_a8_a4_proc_1
      + 711 pi_d_a8_a6_proc_1 + 711 pi_d_a8_a7_proc_1 + 711 pi_d_a8_a9_proc_1
      + pi_y1_a8 + pi_y2_a8_proc_1 >= 0
 c26: - pi_p_a8_a9 + pi_p_a9_a7 + pi_p_a9_a5 + pi_p_a9_a4 - pi_d_a1_a9_proc_1
      + pi_d_a9_a1_proc_1 - pi_d_a2_a9_proc_1 + pi_d_a9_a2_proc_1
      - pi_d_a3_a9_proc_1 + pi_d_a9_a3_proc_1 - pi_d_a4_a9_proc_1
      + pi_d_a9_a4_proc_1 - pi_d_a6_a9_proc_1 + pi_d_a9_a6_proc_1
      - pi_d_a7_a9_proc_1 + pi_d_a9_a7_proc_1 - pi_d_a8_a9_proc_1
      + pi_d_a9_a8_proc_1 >= 0
 c27: 1192 pi_p_a9_a7 + 1192 pi_p_a9_a5 + 1192 pi_p_a9_a4
      + 1192 pi_d_a9_a1_proc_1 + 1192 pi_d_a9_a2_proc_1 + 1192 pi_d_a9_a3_proc_1
      + 1192 pi_d_a9_a4_proc_1 + 1192 pi_d_a9_a6_proc_1 + 1192 pi_d_a9_a7_proc_1
      + 1192 pi_d_a9_a8_proc_1 + pi_y1_a9 + pi_y2_a9_proc_1 >= 0

Bounds
       pi_y1_a0 Free
       pi_y1_a1 Free
       pi_y1_a2 Free
       pi_y1_a3 Free
       pi_y1_a4 Free
       pi_y1_a5 Free
       pi_y1_a6 Free
       pi_y1_a7 Free
       pi_y1_a8 Free
       pi_y1_a9 Free
End
