benchmark/results/graph__10-1000-0.10-02_6/graph__10-1000-0.10-02_6_QuintonOs_Benders_aux.txt
solution for: Quinton Bounded Benders_auxiliary_sub
objective: 0.450802
status: OPTIMAL_SOLUTION(2)
pi_p_a4_a1=0.000
pi_p_a8_a9=0.000
pi_d_a1_a8_proc_1=0.000
pi_d_a2_a4_proc_1=0.000
pi_d_a6_a2_proc_1=0.000
pi_d_a9_a6_proc_1=0.000
pi_y1_a1=-0.142
pi_y1_a2=-0.181
pi_y1_a4=-0.140
pi_y1_a6=-0.113
pi_y1_a8=-0.158
pi_y1_a9=-0.266
pi_y2_a1_proc_0=0.142
pi_y2_a6_proc_0=0.113
